param set_len = 18;
param target = 126049;
param values := [0] 2041 [1] 26677 [2] 4703 [3] 15086 [4] 9330 [5] 32037 [6] 5282 [7] 10064 [8] 31079 [9] 7531 [10] 6028 [11] 3561 [12] 21449 [13] 8290 [14] 7348 [15] 12385 [16] 29753 [17] 21174 ;
